//Dat File

outFile="MPVSBPP_SET1_IT200_ITV1_NT2_TS3_WT1_VT1_REP8";
m=200;
o=96;
p=3;
numVTypes=3;

demand = [3, 5, 11, 4, 3, 10, 1, 3, 2, 11, 4, 3, 1, 2, 2, 8, 2, 11, 3, 5, 8, 5, 4, 5, 11, 4, 3, 5, 7, 4, 9, 4, 8, 2, 2, 2, 3, 2, 3, 2, 11, 5, 4, 1, 4, 3, 6, 9, 9, 11, 5, 5, 9, 8, 9, 10, 11, 8, 7, 6, 4, 10, 4, 4, 8, 3, 6, 1, 5, 3, 1, 3, 6, 6, 6, 1, 1, 8, 6, 3, 6, 7, 11, 11, 5, 4, 4, 7, 11, 7, 4, 3, 9, 9, 6, 6, 5, 11, 2, 9, 1, 3, 9, 7, 11, 10, 6, 5, 8, 2, 7, 8, 3, 11, 6, 3, 1, 7, 11, 10, 8, 5, 6, 4, 5, 7, 8, 11, 1, 3, 8, 8, 10, 10, 6, 5, 11, 8, 8, 3, 4, 2, 5, 8, 10, 4, 3, 2, 11, 5, 17, 13, 12, 17, 14, 19, 16, 16, 15, 18, 18, 18, 19, 16, 15, 19, 19, 14, 14, 14, 17, 18, 13, 17, 18, 15, 18, 12, 12, 14, 13, 13, 12, 16, 16, 16, 19, 13, 15, 13, 14, 17, 16, 14, 17, 13, 18, 12, 17, 19];
Depot_Cap = [30000, 30000, 30000];
Tarif = [10, 3, 7];
VeicVolume = [100, 150, 200];
VeicCost = [100, 120, 140];
VeicType = [1, 1, 1, 1, 1, 1, 1, 1, 1, 1, 1, 1, 1, 1, 1, 1, 1, 1, 1, 1, 1, 1, 1, 1, 1, 1, 1, 1, 1, 1, 1, 1, 2, 2, 2, 2, 2, 2, 2, 2, 2, 2, 2, 2, 2, 2, 2, 2, 2, 2, 2, 2, 2, 2, 2, 2, 2, 2, 2, 2, 2, 2, 2, 2, 3, 3, 3, 3, 3, 3, 3, 3, 3, 3, 3, 3, 3, 3, 3, 3, 3, 3, 3, 3, 3, 3, 3, 3, 3, 3, 3, 3, 3, 3, 3, 3];
Elect_vehicle = [[70, 100, 30], [70, 100, 30], [70, 100, 30], [70, 100, 30], [70, 100, 30], [70, 100, 30], [70, 100, 30], [70, 100, 30], [70, 100, 30], [70, 100, 30], [70, 100, 30], [70, 100, 30], [70, 100, 30], [70, 100, 30], [70, 100, 30], [70, 100, 30], [70, 100, 30], [70, 100, 30], [70, 100, 30], [70, 100, 30], [70, 100, 30], [70, 100, 30], [70, 100, 30], [70, 100, 30], [70, 100, 30], [70, 100, 30], [70, 100, 30], [70, 100, 30], [70, 100, 30], [70, 100, 30], [70, 100, 30], [70, 100, 30], [80, 120, 30], [80, 120, 30], [80, 120, 30], [80, 120, 30], [80, 120, 30], [80, 120, 30], [80, 120, 30], [80, 120, 30], [80, 120, 30], [80, 120, 30], [80, 120, 30], [80, 120, 30], [80, 120, 30], [80, 120, 30], [80, 120, 30], [80, 120, 30], [80, 120, 30], [80, 120, 30], [80, 120, 30], [80, 120, 30], [80, 120, 30], [80, 120, 30], [80, 120, 30], [80, 120, 30], [80, 120, 30], [80, 120, 30], [80, 120, 30], [80, 120, 30], [80, 120, 30], [80, 120, 30], [80, 120, 30], [80, 120, 30], [90, 140, 40], [90, 140, 40], [90, 140, 40], [90, 140, 40], [90, 140, 40], [90, 140, 40], [90, 140, 40], [90, 140, 40], [90, 140, 40], [90, 140, 40], [90, 140, 40], [90, 140, 40], [90, 140, 40], [90, 140, 40], [90, 140, 40], [90, 140, 40], [90, 140, 40], [90, 140, 40], [90, 140, 40], [90, 140, 40], [90, 140, 40], [90, 140, 40], [90, 140, 40], [90, 140, 40], [90, 140, 40], [90, 140, 40], [90, 140, 40], [90, 140, 40], [90, 140, 40], [90, 140, 40], [90, 140, 40], [90, 140, 40]];